50, 1319
40, 45
40, 45
16, 21
32, 42
48, 63
48, 53
48, 53
50, 55
100, 110
200, 220
150, 165
36, 41
72, 82
144, 164
36, 41
6, 11
12, 22
6, 11
44, 49
39, 44
78, 88
117, 132
16, 21
32, 42
64, 84
32, 42
13, 18
26, 36
52, 72
13, 18
10, 15
10, 15
48, 53
96, 106
144, 159
3, 8
6, 16
12, 32
6, 16
25, 30
38, 43
76, 86
114, 129
46, 51
39, 44
78, 88
156, 176
38, 43
76, 86
7, 12
